
Gurobi 11.0.1 (win64) logging started Tue May 14 18:34:56 2024

Set parameter LogFile to value "output/solver_log8.txt"
Gurobi Optimizer version 11.0.1 build v11.0.1rc0 (win64 - Windows 11.0 (22631.2))

CPU model: 11th Gen Intel(R) Core(TM) i7-1165G7 @ 2.80GHz, instruction set [SSE2|AVX|AVX2|AVX512]
Thread count: 4 physical cores, 8 logical processors, using up to 8 threads

Optimize a model with 1192 rows, 335 columns and 21986 nonzeros
Model fingerprint: 0xe913a02f
Variable types: 88 continuous, 247 integer (247 binary)
Coefficient statistics:
  Matrix range     [4e-01, 1e+05]
  Objective range  [1e+00, 1e+02]
  Bounds range     [1e+00, 1e+00]
  RHS range        [1e-02, 1e+05]

User MIP start produced solution with objective 57460.5 (0.00s)
User MIP start produced solution with objective 57460.5 (0.01s)
Loaded user MIP start with objective 57460.5

Presolve removed 138 rows and 142 columns
Presolve time: 0.02s
Presolved: 1054 rows, 193 columns, 20847 nonzeros
Variable types: 81 continuous, 112 integer (110 binary)

Root relaxation: cutoff, 4 iterations, 0.00 seconds (0.01 work units)

    Nodes    |    Current Node    |     Objective Bounds      |     Work
 Expl Unexpl |  Obj  Depth IntInf | Incumbent    BestBd   Gap | It/Node Time

     0     0     cutoff    0      57460.4703 57460.4703  0.00%     -    0s

Explored 1 nodes (4 simplex iterations) in 0.05 seconds (0.09 work units)
Thread count was 8 (of 8 available processors)

Solution count 2: 57460.5 57460.5 

Optimal solution found (tolerance 1.00e-04)
Best objective 5.746047030979e+04, best bound 5.746047030979e+04, gap 0.0000%
